p edges 64 1035
e 1 3
e 1 4
e 1 5
e 1 6
e 1 7
e 1 9
e 1 13
e 1 14
e 1 15
e 1 16
e 1 18
e 1 19
e 1 20
e 1 22
e 1 26
e 1 27
e 1 28
e 1 30
e 1 32
e 1 33
e 1 34
e 1 35
e 1 39
e 1 42
e 1 43
e 1 45
e 1 46
e 1 47
e 1 48
e 1 49
e 1 54
e 1 55
e 1 56
e 1 59
e 1 60
e 1 61
e 1 62
e 1 63
e 1 64
e 2 3
e 2 11
e 2 14
e 2 17
e 2 18
e 2 20
e 2 21
e 2 23
e 2 25
e 2 27
e 2 28
e 2 29
e 2 33
e 2 34
e 2 35
e 2 37
e 2 40
e 2 41
e 2 43
e 2 45
e 2 46
e 2 48
e 2 54
e 2 56
e 2 58
e 2 63
e 3 6
e 3 10
e 3 13
e 3 16
e 3 20
e 3 21
e 3 22
e 3 27
e 3 30
e 3 31
e 3 32
e 3 35
e 3 37
e 3 38
e 3 41
e 3 42
e 3 43
e 3 44
e 3 49
e 3 53
e 3 56
e 3 57
e 3 58
e 3 60
e 3 61
e 4 7
e 4 8
e 4 9
e 4 11
e 4 12
e 4 13
e 4 16
e 4 17
e 4 19
e 4 22
e 4 25
e 4 27
e 4 30
e 4 31
e 4 32
e 4 33
e 4 34
e 4 35
e 4 36
e 4 38
e 4 42
e 4 44
e 4 45
e 4 46
e 4 47
e 4 49
e 4 51
e 4 52
e 4 53
e 4 55
e 4 59
e 4 60
e 4 61
e 4 64
e 5 10
e 5 12
e 5 13
e 5 15
e 5 16
e 5 17
e 5 20
e 5 21
e 5 22
e 5 23
e 5 28
e 5 29
e 5 30
e 5 33
e 5 34
e 5 36
e 5 37
e 5 39
e 5 40
e 5 41
e 5 42
e 5 43
e 5 46
e 5 47
e 5 48
e 5 49
e 5 50
e 5 51
e 5 56
e 5 59
e 5 62
e 5 63
e 6 18
e 6 20
e 6 21
e 6 22
e 6 23
e 6 26
e 6 27
e 6 28
e 6 29
e 6 30
e 6 32
e 6 33
e 6 35
e 6 37
e 6 38
e 6 39
e 6 41
e 6 43
e 6 46
e 6 49
e 6 50
e 6 51
e 6 52
e 6 53
e 6 59
e 6 60
e 6 62
e 6 63
e 7 8
e 7 10
e 7 12
e 7 14
e 7 19
e 7 20
e 7 24
e 7 26
e 7 29
e 7 30
e 7 31
e 7 34
e 7 36
e 7 39
e 7 41
e 7 42
e 7 44
e 7 48
e 7 51
e 7 53
e 7 54
e 7 55
e 7 56
e 7 59
e 7 60
e 7 62
e 7 64
e 8 9
e 8 11
e 8 12
e 8 14
e 8 15
e 8 17
e 8 18
e 8 19
e 8 20
e 8 21
e 8 23
e 8 27
e 8 28
e 8 29
e 8 31
e 8 33
e 8 34
e 8 35
e 8 36
e 8 38
e 8 40
e 8 41
e 8 42
e 8 43
e 8 46
e 8 50
e 8 51
e 8 55
e 8 59
e 8 60
e 8 61
e 9 13
e 9 18
e 9 25
e 9 26
e 9 27
e 9 28
e 9 29
e 9 32
e 9 36
e 9 37
e 9 38
e 9 39
e 9 41
e 9 45
e 9 47
e 9 51
e 9 53
e 9 57
e 9 64
e 10 11
e 10 14
e 10 16
e 10 17
e 10 18
e 10 19
e 10 20
e 10 24
e 10 26
e 10 28
e 10 30
e 10 32
e 10 36
e 10 37
e 10 39
e 10 40
e 10 41
e 10 44
e 10 45
e 10 49
e 10 51
e 10 53
e 10 56
e 10 57
e 10 58
e 10 59
e 10 61
e 11 12
e 11 13
e 11 14
e 11 17
e 11 18
e 11 20
e 11 23
e 11 24
e 11 26
e 11 30
e 11 31
e 11 32
e 11 33
e 11 36
e 11 37
e 11 38
e 11 42
e 11 44
e 11 45
e 11 48
e 11 50
e 11 51
e 11 53
e 11 54
e 11 55
e 11 57
e 11 60
e 11 61
e 11 62
e 11 63
e 12 13
e 12 14
e 12 17
e 12 21
e 12 24
e 12 28
e 12 29
e 12 30
e 12 34
e 12 37
e 12 38
e 12 40
e 12 41
e 12 42
e 12 45
e 12 46
e 12 51
e 12 53
e 12 55
e 12 57
e 12 60
e 12 62
e 12 64
e 13 16
e 13 17
e 13 19
e 13 24
e 13 25
e 13 26
e 13 27
e 13 28
e 13 32
e 13 34
e 13 38
e 13 41
e 13 43
e 13 49
e 13 50
e 13 53
e 13 54
e 13 56
e 13 58
e 13 59
e 13 62
e 14 20
e 14 23
e 14 24
e 14 26
e 14 27
e 14 28
e 14 30
e 14 31
e 14 32
e 14 36
e 14 37
e 14 40
e 14 41
e 14 43
e 14 44
e 14 46
e 14 49
e 14 50
e 14 53
e 14 55
e 14 56
e 14 62
e 15 16
e 15 17
e 15 18
e 15 19
e 15 20
e 15 26
e 15 27
e 15 30
e 15 31
e 15 32
e 15 33
e 15 35
e 15 37
e 15 38
e 15 41
e 15 42
e 15 44
e 15 46
e 15 47
e 15 48
e 15 49
e 15 50
e 15 52
e 15 55
e 15 56
e 15 59
e 15 61
e 15 62
e 15 64
e 16 17
e 16 18
e 16 19
e 16 22
e 16 23
e 16 25
e 16 27
e 16 28
e 16 29
e 16 30
e 16 31
e 16 34
e 16 37
e 16 42
e 16 43
e 16 44
e 16 45
e 16 46
e 16 47
e 16 49
e 16 50
e 16 51
e 16 52
e 16 53
e 16 54
e 16 58
e 16 61
e 16 62
e 16 64
e 17 18
e 17 19
e 17 20
e 17 21
e 17 23
e 17 24
e 17 25
e 17 29
e 17 33
e 17 36
e 17 38
e 17 40
e 17 41
e 17 42
e 17 43
e 17 46
e 17 48
e 17 49
e 17 50
e 17 51
e 17 52
e 17 54
e 17 55
e 17 60
e 17 63
e 18 19
e 18 20
e 18 27
e 18 28
e 18 30
e 18 38
e 18 39
e 18 40
e 18 43
e 18 50
e 18 52
e 18 55
e 18 58
e 19 21
e 19 22
e 19 23
e 19 24
e 19 26
e 19 27
e 19 29
e 19 32
e 19 34
e 19 35
e 19 36
e 19 37
e 19 38
e 19 43
e 19 44
e 19 45
e 19 46
e 19 47
e 19 48
e 19 52
e 19 54
e 19 55
e 19 56
e 19 59
e 19 62
e 19 63
e 19 64
e 20 21
e 20 22
e 20 23
e 20 25
e 20 27
e 20 28
e 20 29
e 20 31
e 20 33
e 20 34
e 20 35
e 20 36
e 20 39
e 20 40
e 20 41
e 20 43
e 20 44
e 20 45
e 20 51
e 20 52
e 20 53
e 20 59
e 20 60
e 20 62
e 21 24
e 21 26
e 21 29
e 21 30
e 21 31
e 21 34
e 21 35
e 21 38
e 21 42
e 21 43
e 21 46
e 21 48
e 21 50
e 21 52
e 21 55
e 21 57
e 21 60
e 21 61
e 21 62
e 22 23
e 22 24
e 22 25
e 22 26
e 22 29
e 22 30
e 22 31
e 22 32
e 22 33
e 22 35
e 22 36
e 22 37
e 22 38
e 22 39
e 22 44
e 22 45
e 22 46
e 22 47
e 22 48
e 22 50
e 22 51
e 22 54
e 22 55
e 22 56
e 22 60
e 22 62
e 22 63
e 23 24
e 23 25
e 23 26
e 23 27
e 23 29
e 23 30
e 23 32
e 23 36
e 23 37
e 23 40
e 23 41
e 23 42
e 23 44
e 23 45
e 23 47
e 23 48
e 23 49
e 23 50
e 23 51
e 23 53
e 23 54
e 23 55
e 23 56
e 23 58
e 23 59
e 23 60
e 23 61
e 23 62
e 23 63
e 24 25
e 24 28
e 24 29
e 24 30
e 24 32
e 24 33
e 24 34
e 24 35
e 24 40
e 24 43
e 24 44
e 24 45
e 24 46
e 24 49
e 24 50
e 24 52
e 24 54
e 24 56
e 24 57
e 24 59
e 24 62
e 24 63
e 24 64
e 25 26
e 25 28
e 25 30
e 25 32
e 25 34
e 25 37
e 25 43
e 25 44
e 25 46
e 25 47
e 25 49
e 25 51
e 25 53
e 25 55
e 25 56
e 25 59
e 25 60
e 25 61
e 25 63
e 26 27
e 26 28
e 26 29
e 26 30
e 26 31
e 26 33
e 26 35
e 26 37
e 26 39
e 26 42
e 26 43
e 26 44
e 26 49
e 26 52
e 26 57
e 26 58
e 26 59
e 26 62
e 27 30
e 27 33
e 27 34
e 27 38
e 27 40
e 27 42
e 27 43
e 27 44
e 27 45
e 27 49
e 27 50
e 27 51
e 27 52
e 27 53
e 27 54
e 27 55
e 27 58
e 27 60
e 27 62
e 27 64
e 28 29
e 28 30
e 28 32
e 28 33
e 28 38
e 28 39
e 28 40
e 28 41
e 28 46
e 28 47
e 28 49
e 28 50
e 28 51
e 28 52
e 28 54
e 28 55
e 28 56
e 28 57
e 28 58
e 28 60
e 28 62
e 28 63
e 28 64
e 29 31
e 29 32
e 29 33
e 29 34
e 29 38
e 29 40
e 29 41
e 29 42
e 29 43
e 29 45
e 29 46
e 29 47
e 29 51
e 29 52
e 29 53
e 29 55
e 29 56
e 29 58
e 29 59
e 29 60
e 29 62
e 30 31
e 30 34
e 30 37
e 30 40
e 30 41
e 30 42
e 30 45
e 30 46
e 30 47
e 30 49
e 30 52
e 30 53
e 30 54
e 30 59
e 31 35
e 31 36
e 31 38
e 31 40
e 31 41
e 31 42
e 31 43
e 31 48
e 31 50
e 31 52
e 31 54
e 31 56
e 31 57
e 31 58
e 31 60
e 31 64
e 32 33
e 32 35
e 32 38
e 32 39
e 32 43
e 32 44
e 32 46
e 32 47
e 32 48
e 32 49
e 32 51
e 32 52
e 32 54
e 32 57
e 32 58
e 32 59
e 32 60
e 32 61
e 32 62
e 33 34
e 33 35
e 33 36
e 33 37
e 33 39
e 33 40
e 33 43
e 33 44
e 33 45
e 33 51
e 33 54
e 33 56
e 33 58
e 33 60
e 33 62
e 33 63
e 34 35
e 34 36
e 34 39
e 34 40
e 34 42
e 34 44
e 34 45
e 34 46
e 34 47
e 34 48
e 34 49
e 34 50
e 34 53
e 34 54
e 34 55
e 34 56
e 34 57
e 34 60
e 35 39
e 35 40
e 35 41
e 35 45
e 35 46
e 35 47
e 35 49
e 35 50
e 35 51
e 35 52
e 35 55
e 35 56
e 35 57
e 35 58
e 35 61
e 36 38
e 36 40
e 36 41
e 36 45
e 36 47
e 36 49
e 36 50
e 36 51
e 36 52
e 36 53
e 36 54
e 36 55
e 36 61
e 36 62
e 37 38
e 37 39
e 37 40
e 37 41
e 37 42
e 37 43
e 37 45
e 37 46
e 37 47
e 37 49
e 37 51
e 37 52
e 37 54
e 37 55
e 37 58
e 37 60
e 37 63
e 37 64
e 38 39
e 38 40
e 38 44
e 38 45
e 38 51
e 38 52
e 38 55
e 38 57
e 38 59
e 38 60
e 38 61
e 38 62
e 38 63
e 38 64
e 39 40
e 39 42
e 39 44
e 39 46
e 39 47
e 39 48
e 39 49
e 39 51
e 39 58
e 39 59
e 39 60
e 39 62
e 39 64
e 40 41
e 40 42
e 40 44
e 40 45
e 40 48
e 40 50
e 40 51
e 40 52
e 40 57
e 40 59
e 40 61
e 40 64
e 41 42
e 41 43
e 41 45
e 41 47
e 41 49
e 41 50
e 41 54
e 41 55
e 41 58
e 41 60
e 41 62
e 41 64
e 42 43
e 42 44
e 42 47
e 42 48
e 42 49
e 42 52
e 42 53
e 42 54
e 42 56
e 42 58
e 42 60
e 42 61
e 43 44
e 43 47
e 43 49
e 43 50
e 43 51
e 43 52
e 43 54
e 43 58
e 43 61
e 44 48
e 44 51
e 44 60
e 44 61
e 44 62
e 45 48
e 45 49
e 45 53
e 45 54
e 45 55
e 45 56
e 45 59
e 45 60
e 45 61
e 45 62
e 45 63
e 45 64
e 46 51
e 46 53
e 46 54
e 46 55
e 46 58
e 46 60
e 46 62
e 46 63
e 46 64
e 47 49
e 47 51
e 47 54
e 47 56
e 47 57
e 47 58
e 47 61
e 48 50
e 48 51
e 48 54
e 48 57
e 48 58
e 48 59
e 48 61
e 48 63
e 49 53
e 49 54
e 49 57
e 49 58
e 49 61
e 49 62
e 49 63
e 49 64
e 50 51
e 50 52
e 50 55
e 50 56
e 50 59
e 50 60
e 50 61
e 50 63
e 50 64
e 51 52
e 51 53
e 51 57
e 51 58
e 51 61
e 52 55
e 52 56
e 52 57
e 52 60
e 52 62
e 52 63
e 53 54
e 53 55
e 53 56
e 53 57
e 53 58
e 53 60
e 54 55
e 54 58
e 54 59
e 54 61
e 54 64
e 55 56
e 55 57
e 55 63
e 56 57
e 56 60
e 56 64
e 57 59
e 57 60
e 57 62
e 57 63
e 57 64
e 58 59
e 58 60
e 58 61
e 58 63
e 58 64
e 59 62
e 60 63
e 61 62
e 61 63
e 61 64
e 62 64
e 63 64
